5 5
6 5 2 8 1 9 4 4 5 9 3 2 2 2 2 5 7 2 2 3 4 20 1 3 14 5 5 12 3 12 1 14 2 17 4 3 5 5 16 4 14 2 4 1 18 3 2
5 5 3 15 4 3 2 5 5 3 1 10 2 1 14 3 14 5 3 7 2 2 4 3 5 3 1 19 4 3 6 2 16 4 16 1 10 1 1 18
8 1 2 13 1 1 20 4 5 17 3 13 1 2 4 12 4 4 12 3 12 1 20 5 4 4 4 16 3 4 2 13 5 11 5 1 7 4 11 5 17 3 16 2 9 4 4 4 2 17 5 6 3 3 1 2 19
4 4 1 18 5 8 3 20 2 10 3 4 9 3 18 2 17 1 3 14 5 5 2 4 20 1 15 3 6 2 4
8 5 1 7 5 5 4 5 3 9 2 7 3 5 10 2 15 4 10 1 4 3 1 1 18 5 4 8 1 10 5 19 2 7 3 19 4 5 6 1 3 3 18 2 5 2 4 18 3 4 1 2 16